c SAT problem
p wcnf 594 1579
1 60 3150 0
1 -60 61 0
1 -60 -3135 0
1 75 -60 0
1 90 105 0
1 -90 3090 0
1 -105 -3075 0
1 -105 -90 0
1 -3135 75 0
1 3135 150 0
1 3150 166 0
1 -3150 75 0
1 -3165 166 0
1 -3165 -75 0
1 3165 -181 0
1 -3165 -151 0
1 3165 60 0
1 135 3120 0
1 -135 -3060 0
1 -150 165 0
1 -150 3045 0
1 150 -3090 0
1 165 -3075 0
1 -165 3120 0
1 -165 -3030 0
1 -3060 -255 0
1 3075 -225 0
1 3075 -240 0
1 -3075 -210 0
1 3090 -165 0
1 -3105 -3090 0
1 -180 -3060 0
1 195 196 0
1 -195 -3045 0
1 195 180 0
1 195 -3030 0
1 195 -3000 0
1 -210 -225 0
1 210 -211 0
1 -225 3075 0
1 225 -3060 0
1 225 -3030 0
1 225 3000 0
1 -3000 3015 0
1 3030 -3045 0
1 3030 -210 0
1 -3030 -315 0
1 3030 -285 0
1 -3030 -255 0
1 3045 -225 0
1 -3045 -195 0
1 -3045 -300 0
1 -3045 -270 0
1 -3045 -180 0
1 -61 3330 0
1 -61 -3300 0
1 -76 -3330 0
1 -76 3315 0
1 -91 3285 0
1 91 -90 0
1 106 3300 0
1 -106 -3285 0
1 3300 151 0
1 -3315 166 0
1 -3315 182 0
1 -3315 121 0
1 -3330 -3345 0
1 3330 152 0
1 3345 197 0
1 -3345 61 0
1 -121 -3300 0
1 -121 136 0
1 121 3240 0
1 151 3300 0
1 151 -3180 0
1 -151 -3315 0
1 -151 152 0
1 151 3225 0
1 166 -167 0
1 -166 3165 0
1 -3240 211 0
1 -3255 -226 0
1 -3255 211 0
1 -3270 -256 0
1 3270 197 0
1 3270 166 0
1 -3285 151 0
1 3285 -121 0
1 -3285 91 0
1 -181 3180 0
1 181 3150 0
1 181 3090 0
1 -181 -3135 0
1 196 -3105 0
1 -196 -195 0
1 -196 -3195 0
1 196 -3165 0
1 -196 3135 0
1 211 3136 0
1 211 226 0
1 211 3210 0
1 211 3255 0
1 226 225 0
1 226 3240 0
1 226 -3121 0
1 -226 3090 0
1 226 -3195 0
1 -3180 3181 0
1 3180 240 0
1 -3180 151 0
1 3180 -255 0
1 -3195 -3180 0
1 -3195 3196 0
1 -3195 316 0
1 -3195 -255 0
1 3210 196 0
1 3210 -151 0
1 3210 286 0
1 -3225 196 0
1 3225 -301 0
1 -3225 241 0
1 -3225 -316 0
1 3225 -286 0
1 240 3136 0
1 240 3105 0
1 -240 -3075 0
1 240 3045 0
1 -240 -241 0
1 -240 -3060 0
1 255 -3180 0
1 -255 -3090 0
1 -255 3166 0
1 -270 3076 0
1 285 3151 0
1 -3121 -330 0
1 -3121 3122 0
1 -3121 255 0
1 -3136 226 0
1 -3136 270 0
1 3136 240 0
1 -3136 285 0
1 -3151 -3150 0
1 -3151 346 0
1 3151 -316 0
1 -3151 285 0
1 -3166 361 0
1 3166 -301 0
1 -3166 376 0
1 -300 3091 0
1 300 3061 0
1 300 -3030 0
1 -300 315 0
1 315 -3106 0
1 315 3030 0
1 315 -316 0
1 330 3136 0
1 -330 -3076 0
1 330 -3121 0
1 -345 -3046 0
1 -345 -3016 0
1 3061 420 0
1 3061 -3076 0
1 -3061 -390 0
1 3061 -360 0
1 -3061 330 0
1 3061 270 0
1 3061 3062 0
1 3061 -315 0
1 -3076 3075 0
1 -3076 -360 0
1 3076 -285 0
1 -3091 -3090 0
1 -3106 -270 0
1 -3106 -376 0
1 360 3076 0
1 -375 -3061 0
1 -390 3076 0
1 390 3046 0
1 -390 -3031 0
1 405 3016 0
1 405 406 0
1 405 3001 0
1 -3001 -405 0
1 -3016 3001 0
1 -3031 360 0
1 -3031 330 0
1 3031 -435 0
1 -3046 480 0
1 3046 3047 0
1 -3046 330 0
1 -3046 -375 0
1 62 77 0
1 -62 -61 0
1 62 -63 0
1 -77 -78 0
1 77 -62 0
1 -92 -3435 0
1 107 -3525 0
1 -107 -3465 0
1 -107 -3435 0
1 -3480 -152 0
1 -3480 -3481 0
1 3495 122 0
1 -3510 3511 0
1 3510 -3525 0
1 -3510 -198 0
1 -3510 -153 0
1 3525 -3526 0
1 -3525 92 0
1 137 3345 0
1 -137 -122 0
1 -152 -3360 0
1 152 -3480 0
1 -152 -3450 0
1 -167 -3360 0
1 -167 152 0
1 3420 227 0
1 3420 137 0
1 3420 -182 0
1 3420 122 0
1 3435 -182 0
1 3450 228 0
1 3450 -3451 0
1 -3450 -92 0
1 3465 122 0
1 -182 -3330 0
1 -182 197 0
1 -182 3285 0
1 -197 196 0
1 -197 3375 0
1 197 -3285 0
1 -197 3420 0
1 212 -3405 0
1 -227 -3331 0
1 227 212 0
1 227 -3316 0
1 3360 197 0
1 -3360 271 0
1 -3375 -302 0
1 3390 167 0
1 -3390 3405 0
1 -3405 197 0
1 -3405 -167 0
1 -241 3346 0
1 -241 -3285 0
1 241 -3225 0
1 -256 3225 0
1 271 -3331 0
1 271 -3210 0
1 271 272 0
1 -271 3225 0
1 286 -3331 0
1 -286 -3210 0
1 286 271 0
1 286 -3256 0
1 286 -287 0
1 -3301 271 0
1 -3301 -241 0
1 3301 346 0
1 3316 -256 0
1 -3316 227 0
1 -3316 331 0
1 -3316 241 0
1 -3316 3317 0
1 -3331 3332 0
1 -3331 -3346 0
1 3331 -347 0
1 -301 -302 0
1 -301 3316 0
1 -301 3286 0
1 301 -3225 0
1 316 -3241 0
1 316 -3151 0
1 331 3301 0
1 -331 3226 0
1 -331 330 0
1 346 3181 0
1 -346 345 0
1 -3241 -3256 0
1 3241 -391 0
1 3241 3240 0
1 3241 -271 0
1 -3256 -421 0
1 -3256 -331 0
1 3256 406 0
1 -3256 3257 0
1 3271 -271 0
1 -3271 -436 0
1 3271 316 0
1 3271 -286 0
1 -3286 -392 0
1 3286 271 0
1 361 3136 0
1 361 3091 0
1 361 -376 0
1 -376 3106 0
1 376 361 0
1 -391 -392 0
1 391 -406 0
1 391 -3256 0
1 -391 -3167 0
1 406 -3137 0
1 406 3226 0
1 3181 -450 0
1 3181 420 0
1 -3181 -361 0
1 -3196 481 0
1 3196 -420 0
1 3211 466 0
1 -3226 -481 0
1 -3226 361 0
1 -3226 496 0
1 3226 -436 0
1 -3226 3227 0
1 420 -3106 0
1 420 3031 0
1 435 420 0
1 435 3152 0
1 435 -3091 0
1 435 -3031 0
1 -450 -451 0
1 -450 -3107 0
1 -450 -3181 0
1 -450 465 0
1 450 3092 0
1 450 -3167 0
1 465 -3167 0
1 3122 -525 0
1 3122 406 0
1 3137 480 0
1 -3137 3122 0
1 -3137 541 0
1 3152 -420 0
1 3152 -556 0
1 -3152 3151 0
1 -3152 -3153 0
1 3167 -3168 0
1 -3167 465 0
1 3167 -435 0
1 480 3092 0
1 -480 3062 0
1 -480 -3031 0
1 480 3001 0
1 495 480 0
1 -495 496 0
1 510 3137 0
1 510 -525 0
1 -510 -3122 0
1 -510 3032 0
1 525 -3017 0
1 -525 -3002 0
1 3062 450 0
1 -3062 585 0
1 -3077 495 0
1 -3092 -480 0
1 3092 -525 0
1 -3092 -495 0
1 3092 -3091 0
1 -3107 -480 0
1 -3107 450 0
1 3107 586 0
1 -540 555 0
1 -555 -3047 0
1 -555 540 0
1 585 3002 0
1 -3017 -3002 0
1 3017 675 0
1 3017 540 0
1 3032 645 0
1 3032 3047 0
1 3032 525 0
1 3032 630 0
1 3032 -510 0
1 -3047 -615 0
1 3047 3032 0
1 78 77 0
1 -78 3705 0
1 -93 -3705 0
1 -93 -94 0
1 108 3645 0
1 -108 93 0
1 -108 -3615 0
1 -3660 -168 0
1 3660 153 0
1 -3660 -93 0
1 -3660 -63 0
1 -3675 -168 0
1 -3675 153 0
1 3690 169 0
1 3690 154 0
1 3690 -124 0
1 3690 -63 0
1 123 -3525 0
1 -123 138 0
1 123 -122 0
1 -123 3675 0
1 138 3525 0
1 138 3510 0
1 138 -123 0
1 -153 3660 0
1 153 -3630 0
1 153 -3570 0
1 153 3675 0
1 168 -3585 0
1 168 167 0
1 168 -169 0
1 168 -3630 0
1 -168 3540 0
1 3615 228 0
1 3615 168 0
1 3615 138 0
1 3615 -3600 0
1 3615 213 0
1 3615 -153 0
1 -3630 229 0
1 -3630 -168 0
1 3630 -108 0
1 3630 -214 0
1 3645 -138 0
1 -3645 184 0
1 3645 -153 0
1 -3645 3646 0
1 -183 -3465 0
1 -183 -3600 0
1 -183 3540 0
1 183 182 0
1 198 3570 0
1 -198 3480 0
1 198 -3450 0
1 213 -3585 0
1 -213 -3496 0
1 213 -3465 0
1 -213 3570 0
1 228 -3465 0
1 228 -3450 0
1 3540 -257 0
1 3540 -3555 0
1 3540 -198 0
1 -3540 168 0
1 -3540 303 0
1 -3540 -242 0
1 -3555 257 0
1 -3555 -153 0
1 -3570 258 0
1 3570 -168 0
1 3570 318 0
1 3585 183 0
1 -3585 318 0
1 242 -257 0
1 -242 -3465 0
1 242 -3420 0
1 257 -3526 0
1 -257 -3405 0
1 257 -242 0
1 257 -3420 0
1 272 3555 0
1 272 3436 0
1 272 -3421 0
1 272 -287 0
1 287 -3496 0
1 -287 3436 0
1 287 3405 0
1 -287 3421 0
1 287 3390 0
1 -3481 332 0
1 -3481 -3482 0
1 -3496 -3495 0
1 3511 363 0
1 3526 272 0
1 3526 378 0
1 302 3331 0
1 302 -3436 0
1 302 303 0
1 -302 3346 0
1 302 3451 0
1 -317 -3360 0
1 -317 3331 0
1 -317 3466 0
1 317 -3481 0
1 -317 -318 0
1 -332 -3331 0
1 332 -331 0
1 347 3361 0
1 -347 -346 0
1 -347 3451 0
1 -3421 -422 0
1 3421 392 0
1 -3421 3436 0
1 3436 302 0
1 -3451 -272 0
1 3466 -363 0
1 362 3331 0
1 377 -3436 0
1 -377 378 0
1 -377 -3391 0
1 392 -3332 0
1 -392 -3271 0
1 407 3286 0
1 3361 -3362 0
1 3361 466 0
1 3376 -3361 0
1 3376 -482 0
1 3376 362 0
1 3376 -466 0
1 -3376 -377 0
1 -3391 -467 0
1 3406 497 0
1 3406 437 0
1 3406 407 0
1 -421 -3317 0
1 436 3317 0
1 451 -450 0
1 -451 -3272 0
1 451 -3242 0
1 451 -3211 0
1 451 -3376 0
1 -451 -3226 0
1 -466 3361 0
1 466 3332 0
1 466 -3272 0
1 -466 3317 0
1 466 3257 0
1 3302 526 0
1 -3302 3317 0
1 3317 3302 0
1 3317 392 0
1 3317 496 0
1 3332 512 0
1 -3332 421 0
1 3332 436 0
1 -3347 -3332 0
1 3347 392 0
1 481 3302 0
1 481 -3196 0
1 496 -495 0
1 -496 -3287 0
1 496 3257 0
1 496 3167 0
1 -511 -526 0
1 -511 -3197 0
1 526 3152 0
1 -526 -3227 0
1 526 3197 0
1 3242 -3257 0
1 -3242 -616 0
1 3272 557 0
1 3287 451 0
1 3287 616 0
1 -3287 -587 0
1 -541 556 0
1 -541 3212 0
1 -541 3092 0
1 541 540 0
1 541 3197 0
1 -541 3167 0
1 556 -557 0
1 556 -3092 0
1 571 3168 0
1 -571 -3107 0
1 571 3212 0
1 -571 -3153 0
1 -571 -572 0
1 -571 3197 0
1 586 -3168 0
1 -586 3107 0
1 -586 585 0
1 -586 3242 0
1 -586 -3197 0
1 3182 586 0
1 -3182 556 0
1 -3182 526 0
1 -3182 -661 0
1 -3197 -661 0
1 3197 -600 0
1 3197 511 0
1 -3212 646 0
1 -3212 586 0
1 3212 601 0
1 3227 -526 0
1 3227 601 0
1 -3227 -3228 0
1 600 -3138 0
1 600 3077 0
1 600 -615 0
1 -600 3123 0
1 -600 -3032 0
1 600 601 0
1 600 -3197 0
1 615 -3138 0
1 615 -3107 0
1 630 -3108 0
1 630 -3078 0
1 -630 -631 0
1 -645 3168 0
1 645 3047 0
1 -645 3153 0
1 -645 -3123 0
1 -645 3093 0
1 -645 -630 0
1 -645 -3063 0
1 -3123 -3138 0
1 3123 721 0
1 -3123 -660 0
1 3123 571 0
1 -3138 -705 0
1 -3138 586 0
1 3138 721 0
1 -3138 690 0
1 -3138 -3123 0
1 3153 645 0
1 3153 -586 0
1 3153 3152 0
1 3168 736 0
1 3168 -615 0
1 3168 721 0
1 660 -675 0
1 660 3108 0
1 -675 -3138 0
1 690 -3138 0
1 690 3093 0
1 -705 3108 0
1 -705 3078 0
1 -3063 750 0
1 -3063 -690 0
1 3063 660 0
1 3093 -660 0
1 -3093 -630 0
1 3093 766 0
1 -720 -3078 0
1 -735 3078 0
1 -735 -720 0
1 750 3033 0
1 -765 3078 0
1 3003 -765 0
1 -3018 -3003 0
1 -3048 690 0
1 3048 825 0
1 -3048 795 0
1 64 63 0
1 -79 3870 0
1 -94 -3795 0
1 -109 3810 0
1 -3840 -64 0
1 -3840 -3841 0
1 3855 139 0
1 139 -3840 0
1 139 -3810 0
1 -139 3780 0
1 -139 -3825 0
1 -169 -3780 0
1 -169 -3825 0
1 -169 -3795 0
1 -3780 199 0
1 3795 -229 0
1 -3795 199 0
1 -3795 -244 0
1 3795 -3796 0
1 3795 -184 0
1 3795 -154 0
1 3795 -124 0
1 -3810 -3811 0
1 3810 -94 0
1 3825 -259 0
1 3825 169 0
1 -3825 3826 0
1 184 3750 0
1 184 3720 0
1 184 -3690 0
1 184 3660 0
1 199 3750 0
1 199 3660 0
1 -199 -3765 0
1 199 -184 0
1 214 229 0
1 -214 3750 0
1 -214 3720 0
1 -214 -3795 0
1 -214 -3706 0
1 -214 3676 0
1 -229 -3661 0
1 -229 3645 0
1 3720 -199 0
1 3720 -304 0
1 -3720 -273 0
1 3720 -214 0
1 -3720 -184 0
1 3735 3736 0
1 -3735 184 0
1 3750 -154 0
1 3765 -199 0
1 3765 -304 0
1 -243 3630 0
1 243 -3570 0
1 258 3615 0
1 273 3601 0
1 273 -3706 0
1 288 3616 0
1 -288 3735 0
1 288 -3676 0
1 3661 288 0
1 -3661 -229 0
1 3661 -3660 0
1 -3676 -364 0
1 3676 3661 0
1 -3676 214 0
1 -3676 -3675 0
1 -3676 348 0
1 3691 -258 0
1 -3691 -273 0
1 -3691 319 0
1 3706 3691 0
1 3706 -334 0
1 3706 -319 0
1 303 -3555 0
1 -303 -304 0
1 -303 3511 0
1 303 -3676 0
1 318 -3616 0
1 -318 3555 0
1 -318 -3570 0
1 333 -3616 0
1 333 3556 0
1 333 -3631 0
1 -3601 -3616 0
1 3601 -393 0
1 -3601 273 0
1 3601 378 0
1 -3616 288 0
1 -3616 -3617 0
1 3616 303 0
1 -3616 408 0
1 3631 394 0
1 3631 -409 0
1 -3646 409 0
1 3646 -318 0
1 363 -3556 0
1 363 -3571 0
1 -363 -378 0
1 -393 -3616 0
1 -393 -3527 0
1 -393 3571 0
1 393 408 0
1 -408 -393 0
1 -408 3601 0
1 -408 3541 0
1 408 -407 0
1 -408 -3482 0
1 3541 -333 0
1 3541 437 0
1 -3556 483 0
1 -3556 -333 0
1 3556 -498 0
1 -3556 3541 0
1 -3571 -393 0
1 3571 -498 0
1 -3586 483 0
1 -3586 -363 0
1 3586 -348 0
1 -422 3436 0
1 422 -3541 0
1 422 3512 0
1 -437 422 0
1 -437 -3497 0
1 -437 -3406 0
1 437 438 0
1 437 3451 0
1 452 453 0
1 -452 -3527 0
1 -452 -467 0
1 452 3541 0
1 452 3422 0
1 -467 -3556 0
1 467 3406 0
1 -467 3541 0
1 3482 -482 0
1 -3482 422 0
1 -3482 -527 0
1 3482 -437 0
1 3497 512 0
1 -3497 -452 0
1 3497 -422 0
1 -3497 3498 0
1 3497 -437 0
1 3512 -467 0
1 -3512 408 0
1 3527 -498 0
1 -482 -481 0
1 482 3467 0
1 -482 3437 0
1 497 3406 0
1 -497 -3347 0
1 497 3452 0
1 512 -3362 0
1 -527 -3362 0
1 -527 3467 0
1 527 3407 0
1 -527 528 0
1 -3422 467 0
1 -3422 -572 0
1 -3437 -527 0
1 -3452 -497 0
1 -3452 -3453 0
1 3467 -527 0
1 3467 -543 0
1 -557 558 0
1 -557 -3317 0
1 572 -3287 0
1 587 -3437 0
1 587 3422 0
1 3362 3363 0
1 -3362 557 0
1 -3362 527 0
1 -3362 601 0
1 -3377 -616 0
1 -3377 587 0
1 3392 -3393 0
1 3392 572 0
1 -3407 -587 0
1 -3407 557 0
1 -601 3333 0
1 601 3377 0
1 601 3318 0
1 601 -600 0
1 -601 602 0
1 601 3227 0
1 -616 -615 0
1 -616 -3303 0
1 -631 -3333 0
1 631 -630 0
1 -631 -3227 0
1 646 3333 0
1 -646 3243 0
1 -646 3377 0
1 646 -3258 0
1 -646 3227 0
1 -3303 -676 0
1 3303 -616 0
1 3303 -3304 0
1 -3303 -661 0
1 3318 -737 0
1 -3318 722 0
1 3318 -631 0
1 3333 -737 0
1 -3333 707 0
1 3333 -587 0
1 -3348 -737 0
1 -3348 -707 0
1 -3348 -692 0
1 -661 3168 0
1 -661 -3273 0
1 -661 3318 0
1 661 -3227 0
1 -676 3182 0
1 -676 -3318 0
1 -676 -3258 0
1 -691 3303 0
1 691 -3228 0
1 706 -707 0
1 706 -3183 0
1 -706 3258 0
1 706 -3228 0
1 3243 -721 0
1 -3243 3258 0
1 -3243 -796 0
1 3243 766 0
1 3258 -676 0
1 -3258 691 0
1 -3258 -661 0
1 3258 631 0
1 3273 -781 0
1 -3273 -752 0
1 3273 -796 0
1 3288 -737 0
1 721 3243 0
1 -721 -720 0
1 -736 3168 0
1 -736 3213 0
1 736 -3123 0
1 736 735 0
1 751 -3108 0
1 751 -3258 0
1 -751 -3124 0
1 751 -3228 0
1 766 3169 0
1 -766 3213 0
1 766 751 0
1 766 3183 0
1 -766 -3093 0
1 -766 3228 0
1 3183 736 0
1 3183 -841 0
1 -3183 -721 0
1 3183 -691 0
1 -3183 -795 0
1 3198 736 0
1 3198 706 0
1 -3198 3199 0
1 3213 811 0
1 3213 -751 0
1 3213 691 0
1 -3213 -856 0
1 3213 -826 0
1 -3228 -736 0
1 -3228 -811 0
1 3228 -691 0
1 780 3048 0
1 -780 3033 0
1 795 3078 0
1 795 3048 0
1 -795 3183 0
1 795 -3154 0
1 -810 -3154 0
1 825 -3048 0
1 -825 -3124 0
1 -3124 -3123 0
1 3124 -916 0
1 3124 -885 0
1 3139 -3138 0
1 3139 3124 0
1 3154 3169 0
1 3154 -3153 0
1 3154 856 0
1 3154 -825 0
1 3154 795 0
1 -3169 780 0
1 -3169 916 0
1 3169 -825 0
1 840 -3079 0
1 840 3048 0
1 840 841 0
1 840 -3003 0
1 855 -3139 0
1 -855 840 0
1 855 -3018 0
1 -870 -3109 0
1 -870 3049 0
1 -870 -3094 0
1 -3079 930 0
1 -3079 3078 0
1 -3079 -810 0
1 3079 -915 0
1 3109 -3108 0
1 3109 810 0
1 3109 885 0
1 3109 825 0
1 -900 3049 0
1 900 -3034 0
1 915 -3034 0
1 945 -3004 0
1 -3004 -3003 0
1 3019 870 0
1 3019 -915 0
1 -3034 3049 0
1 244 -3750 0
1 -244 3886 0
1 244 243 0
1 244 3795 0
1 -259 -3810 0
1 -259 3825 0
1 -259 244 0
1 -274 -3886 0
1 274 273 0
1 289 -274 0
1 -289 -3826 0
1 289 3765 0
1 -3856 -289 0
1 3856 334 0
1 3856 3857 0
1 3886 244 0
1 3886 3871 0
1 304 -3781 0
1 319 -3781 0
1 -334 3751 0
1 334 3721 0
1 -334 333 0
1 -349 -3751 0
1 349 3721 0
1 -349 -3856 0
1 349 3826 0
1 3781 -334 0
1 3796 3781 0
1 -3796 -439 0
1 -3811 289 0
1 3811 424 0
1 3811 -439 0
1 3811 -319 0
1 3826 3811 0
1 3826 -424 0
1 -3826 -3825 0
1 3826 3827 0
1 -364 -3721 0
1 364 3661 0
1 -379 -3691 0
1 379 364 0
1 394 -3781 0
1 394 3692 0
1 -409 -3736 0
1 409 -3646 0
1 3721 -423 0
1 -3721 334 0
1 3721 468 0
1 3736 364 0
1 3736 409 0
1 -3736 -349 0
1 3751 -364 0
1 -3751 -334 0
1 -3751 379 0
1 -3766 484 0
1 -3766 454 0
1 3766 424 0
1 3766 3767 0
1 3766 394 0
1 -3766 364 0
1 -3766 409 0
1 -423 3616 0
1 423 3721 0
1 423 -3692 0
1 -423 -438 0
1 -423 3677 0
1 438 3662 0
1 438 437 0
1 -438 439 0
1 -453 -454 0
1 -453 -3692 0
1 453 -3632 0
1 -453 3707 0
1 468 -3632 0
1 -468 -469 0
1 -3662 -453 0
1 -3662 3661 0
1 3662 -559 0
1 -3662 -498 0
1 3677 -513 0
1 -3677 453 0
1 -3677 423 0
1 -3677 394 0
1 -3677 3662 0
1 -3677 -528 0
1 3677 -3678 0
1 3692 -484 0
1 3692 -453 0
1 -3692 -3693 0
1 -3692 529 0
1 -3692 -409 0
1 3707 514 0
1 -3707 -3692 0
1 -3707 468 0
1 3707 -438 0
1 -483 3617 0
1 -483 -482 0
1 -483 -3602 0
1 -513 514 0
1 -513 -3602 0
1 -528 -513 0
1 528 3557 0
1 -528 -527 0
1 528 3512 0
1 528 3647 0
1 3602 453 0
1 3602 588 0
1 3602 558 0
1 3602 -468 0
1 3617 453 0
1 3617 498 0
1 -3617 603 0
1 -3632 -483 0
1 -3632 453 0
1 -3647 483 0
1 -3647 618 0
1 -3647 559 0
1 -543 3557 0
1 -543 3467 0
1 -543 558 0
1 -543 3602 0
1 558 -3527 0
1 -558 -3497 0
1 558 -3467 0
1 -558 3482 0
1 -558 -543 0
1 573 -3587 0
1 573 3498 0
1 -573 -3602 0
1 588 3498 0
1 588 -3483 0
1 -3542 -3557 0
1 3542 -647 0
1 3542 3541 0
1 3557 647 0
1 3557 -602 0
1 3557 -543 0
1 -3572 -558 0
1 -3572 -3573 0
1 3572 -663 0
1 -3572 -543 0
1 3587 -3588 0
1 -3587 -648 0
1 3587 588 0
1 3587 528 0
1 602 3407 0
1 -602 3542 0
1 617 3528 0
1 -617 3407 0
1 -617 3483 0
1 -617 -3422 0
1 -632 -3392 0
1 -632 -3483 0
1 647 3557 0
1 -647 3438 0
1 3483 -707 0
1 -3483 -647 0
1 -3483 617 0
1 -3483 632 0
1 -3483 3484 0
1 3498 -738 0
1 -3498 -588 0
1 -3498 -723 0
1 3513 678 0
1 3513 693 0
1 -3528 -647 0
1 3528 -617 0
1 -3528 -3529 0
1 -3528 663 0
1 -3528 573 0
1 662 663 0
1 677 -3333 0
1 -677 -678 0
1 -677 3498 0
1 677 3468 0
1 -677 -662 0
1 -677 -3453 0
1 692 3363 0
1 692 -3408 0
1 707 -3333 0
1 707 3438 0
1 -707 -3378 0
1 707 -692 0
1 707 -3453 0
1 707 -3423 0
1 3423 3424 0
1 3423 692 0
1 -3423 -3422 0
1 3453 647 0
1 3453 -797 0
1 3468 -662 0
1 722 -3333 0
1 -722 -3288 0
1 737 -736 0
1 -737 3363 0
1 -737 -3333 0
1 737 3378 0
1 737 3318 0
1 -752 -3363 0
1 752 3423 0
1 -752 3378 0
1 -752 -767 0
1 -767 -3288 0
1 767 -766 0
1 -3363 707 0
1 3363 -842 0
1 3363 752 0
1 3378 -737 0
1 -3378 -842 0
1 -3378 811 0
1 3393 3392 0
1 3393 -812 0
1 3393 782 0
1 3393 3408 0
1 -3408 -707 0
1 3408 -782 0
1 -3408 857 0
1 3408 827 0
1 -781 3319 0
1 -781 -3288 0
1 781 3258 0
1 -796 -3363 0
1 -796 -3334 0
1 796 -3304 0
1 796 781 0
1 796 -3213 0
1 826 -3289 0
1 -826 -3334 0
1 -826 -3259 0
1 3304 -886 0
1 3304 -767 0
1 -3319 -871 0
1 3319 3304 0
1 3319 -781 0
1 -3319 -886 0
1 -3334 826 0
1 3334 796 0
1 -3349 902 0
1 3349 -872 0
1 841 3304 0
1 841 3274 0
1 841 -3319 0
1 -841 856 0
1 841 -3228 0
1 856 3304 0
1 -856 3319 0
1 856 3244 0
1 -856 3213 0
1 856 855 0
1 856 3228 0
1 871 3154 0
1 871 -3289 0
1 886 -3244 0
1 -886 -3184 0
1 -886 3154 0
1 886 -3289 0
1 -886 -3259 0
1 -3259 931 0
1 -3259 -3258 0
1 -3274 -826 0
1 3289 -932 0
1 3289 -826 0
1 3289 -3288 0
1 -901 916 0
1 -916 3154 0
1 -916 -917 0
1 916 3259 0
1 -931 -932 0
1 946 -931 0
1 -946 3244 0
1 -3184 871 0
1 3184 3199 0
1 3199 -946 0
1 3199 886 0
1 3199 3198 0
1 3214 931 0
1 3214 901 0
1 3214 -3213 0
1 3214 916 0
1 -3229 -901 0
1 -454 3782 0
1 469 3842 0
1 469 -468 0
1 -469 3797 0
1 -469 -3766 0
1 3857 454 0
1 3857 -3856 0
1 3857 -439 0
1 -3872 3887 0
1 3887 -3886 0
1 484 3842 0
1 484 -3857 0
1 -499 3812 0
1 -499 -3797 0
1 -514 513 0
1 -514 3842 0
1 -514 3812 0
1 -514 3752 0
1 514 3767 0
1 -514 3707 0
1 -529 -3782 0
1 3782 544 0
1 -3782 469 0
1 -3797 589 0
1 3812 3811 0
1 3812 -484 0
1 3812 -454 0
1 -3812 499 0
1 3812 604 0
1 3827 -3812 0
1 -3827 -3826 0
1 3827 469 0
1 544 -559 0
1 -559 3722 0
1 -574 3722 0
1 574 3693 0
1 -574 3708 0
1 -589 -3632 0
1 3722 679 0
1 3722 -648 0
1 3722 -3721 0
1 -3722 -3723 0
1 -3737 3722 0
1 3737 -633 0
1 3752 574 0
1 -3767 529 0
1 603 -3708 0
1 603 -3693 0
1 618 -3617 0
1 -618 617 0
1 -618 619 0
1 618 3572 0
1 633 -632 0
1 648 3648 0
1 -648 649 0
1 648 -3603 0
1 -3663 -678 0
1 -3678 -739 0
1 -3678 -708 0
1 3678 648 0
1 -3678 -618 0
1 3678 724 0
1 3678 -663 0
1 3678 603 0
1 -3693 709 0
1 3693 -603 0
1 -663 -3648 0
1 663 -3587 0
1 663 3572 0
1 -663 662 0
1 -663 -664 0
1 663 3678 0
1 -678 -3587 0
1 678 -679 0
1 -678 3542 0
1 -678 -3513 0
1 -693 3648 0
1 -693 -3618 0
1 708 -3588 0
1 708 -709 0
1 708 -3528 0
1 -708 3663 0
1 -3603 -708 0
1 3603 678 0
1 3603 -648 0
1 3603 663 0
1 -3603 633 0
1 -3603 -798 0
1 -3618 3617 0
1 3618 -633 0
1 -3633 678 0
1 3633 783 0
1 3633 693 0
1 3633 -663 0
1 3648 724 0
1 -723 -3588 0
1 723 722 0
1 -723 724 0
1 723 3573 0
1 -723 -3543 0
1 738 739 0
1 -738 3558 0
1 -738 -3528 0
1 -738 3468 0
1 -753 -3543 0
1 -768 3529 0
1 768 -3573 0
1 -768 3543 0
1 -3543 768 0
1 -3543 843 0
1 -3543 -3544 0
1 3558 -738 0
1 3558 -812 0
1 -3558 858 0
1 -3573 -858 0
1 -3573 828 0
1 3588 738 0
1 -3588 753 0
1 782 3529 0
1 782 3499 0
1 -782 3453 0
1 782 -3423 0
1 -797 -3393 0
1 797 3529 0
1 797 -3499 0
1 797 -782 0
1 -797 3408 0
1 -797 -3514 0
1 797 -3423 0
1 -812 3408 0
1 812 3484 0
1 827 -3393 0
1 827 -3514 0
1 -827 -3454 0
1 3484 -872 0
1 -3484 3483 0
1 3499 -903 0
1 -3499 -782 0
1 3499 -857 0
1 -3499 827 0
1 3514 873 0
1 -3514 3529 0
1 -3514 812 0
1 -3514 -782 0
1 3514 -753 0
1 3529 -768 0
1 -3529 858 0
1 842 -3424 0
1 -842 -3393 0
1 -842 3408 0
1 -857 3408 0
1 -872 3364 0
1 -872 3334 0
1 -872 871 0
1 872 3469 0
1 872 3379 0
1 872 -887 0
1 872 -3484 0
1 887 -872 0
1 3424 932 0
1 3424 -902 0
1 3424 -872 0
1 3424 887 0
1 3439 -902 0
1 3439 -842 0
1 -3439 812 0
1 -3439 -947 0
1 3454 903 0
1 3469 872 0
1 902 -3424 0
1 -902 -903 0
1 -917 -3334 0
1 917 3409 0
1 -917 916 0
1 917 -3289 0
1 947 -3424 0
1 -947 3409 0
1 -947 -948 0
1 -3364 -902 0
1 -3379 872 0
1 3394 -3393 0
1 -3394 -932 0
1 3394 902 0
1 -3409 932 0
1 -3409 -947 0
1 -604 -3843 0
1 -604 -3812 0
1 604 3782 0
1 604 -3752 0
1 604 3827 0
1 -634 -3843 0
1 -634 3813 0
1 634 -649 0
1 -634 3888 0
1 -634 -3798 0
1 634 3767 0
1 634 633 0
1 649 -3813 0
1 649 3783 0
1 -649 -3858 0
1 649 3828 0
1 -649 3798 0
1 -649 634 0
1 -3843 3842 0
1 -3858 649 0
1 -3858 -3857 0
1 3858 694 0
1 3888 -3873 0
1 664 3843 0
1 -664 -3693 0
1 -664 3828 0
1 694 -3843 0
1 694 -3708 0
1 -3783 679 0
1 3783 -784 0
1 -3783 694 0
1 -3798 -724 0
1 -3798 -3797 0
1 -3798 799 0
1 -3813 3828 0
1 3828 3813 0
1 3828 -3829 0
1 3828 -664 0
1 -3828 -634 0
1 -724 3753 0
1 724 -3663 0
1 -724 3708 0
1 -739 -3783 0
1 739 3693 0
1 754 3798 0
1 -769 3768 0
1 -3723 -709 0
1 3723 -724 0
1 -3723 859 0
1 3738 -769 0
1 3738 -844 0
1 -3738 -3739 0
1 -3738 -828 0
1 -3738 798 0
1 3753 -739 0
1 -3753 -814 0
1 -3753 -724 0
1 3753 -3768 0
1 3768 709 0
1 -783 3723 0
1 -783 782 0
1 -783 -3633 0
1 -783 3573 0
1 783 3738 0
1 -783 -3679 0
1 798 -3679 0
1 -798 797 0
1 813 -3664 0
1 -813 3634 0
1 -813 828 0
1 828 3588 0
1 828 -813 0
1 -828 -3694 0
1 828 3604 0
1 -828 -827 0
1 -828 -829 0
1 -3664 769 0
1 3664 904 0
1 -3664 -754 0
1 3664 919 0
1 -3679 873 0
1 -3679 888 0
1 3694 844 0
1 -3709 783 0
1 -3709 889 0
1 3709 859 0
1 -843 -3529 0
1 -843 -3664 0
1 -858 -3514 0
1 858 859 0
1 -873 -3589 0
1 -873 872 0
1 873 3664 0
1 -873 -3679 0
1 888 3589 0
1 -888 -873 0
1 888 3634 0
1 3604 -903 0
1 -3619 -903 0
1 3619 -843 0
1 -3634 813 0
1 3634 -858 0
1 3649 -3648 0
1 3649 873 0
1 903 -3499 0
1 -903 -3469 0
1 -903 3604 0
1 -918 -3619 0
1 918 903 0
1 918 3499 0
1 -918 -3514 0
1 -933 3559 0
1 -933 3574 0
1 948 -3559 0
1 948 3544 0
1 3544 903 0
1 -3544 948 0
1 3559 -933 0
1 3574 918 0
1 -3574 888 0
1 -3589 -903 0
1 784 3783 0
1 -799 -3874 0
1 -799 -3859 0
1 814 3844 0
1 814 3829 0
1 829 -814 0
1 -3844 -844 0
1 3859 -844 0
1 -3859 -3858 0
1 3874 -3873 0
1 -3874 -784 0
1 -3874 -3889 0
1 3889 784 0
1 -844 -3753 0
1 -844 3694 0
1 859 3784 0
1 859 3799 0
1 -874 3844 0
1 -874 -3814 0
1 -874 -3829 0
1 874 -3799 0
1 889 3814 0
1 -3784 844 0
1 3799 844 0
1 -3799 889 0
1 -3814 844 0
1 -3829 -3828 0
1 -3829 -889 0
1 919 -904 0
1 919 -3724 0
1 919 3634 0
1 -919 3799 0
1 919 -3769 0
1 -919 3679 0
1 934 -3724 0
1 949 934 0
1 949 3799 0
1 -3724 919 0
1 3724 889 0
1 3769 -919 0
